Solving original (integer) problem with strategy gdp.binary_multiplication...
--- Job model.gms Start 02/19/26 04:30:35 52.2.0 d8e408be LEX-LEG x86 64bit/Linux
--- Applying:
    /package/gams/52.2/gmsprmun.txt
--- GAMS Parameters defined
    Input /local/scratch/a/sgusev/repos/k_means/data/gams_gurobi_gdp.binary_multiplication/no_mode/2026-02-19_04-30-34/original/model.gms
    Output /local/scratch/a/sgusev/repos/k_means/data/gams_gurobi_gdp.binary_multiplication/no_mode/2026-02-19_04-30-34/original/output.lst
    ScrDir /local/scratch/a/sgusev/repos/k_means/data/gams_gurobi_gdp.binary_multiplication/no_mode/2026-02-19_04-30-34/original/225a/
    SysDir /package/gams/52.2/
    CurDir /local/scratch/a/sgusev/repos/k_means/data/gams_gurobi_gdp.binary_multiplication/no_mode/2026-02-19_04-30-34/original/
    LogOption 3
    AppendLog 1
Licensee: David Bernal / SECQUOIA Research Group         G251008+0003Ac-GEN
          Purdue University, Davidson School of Chemical EngineeringDCE4838
          225a/gamslice.dat
          5a82958a-fbca-4a23
          node:66820903 mem:995 cores:48 ipport:40713 v:2                  
          Evaluation license: Not for commercial or production use
          The time-limited license stops working on : Jun 30, 2027
System information: 48 physical cores and 995 Gb physical memory detected
GAMS 52.2.0   Copyright (C) 1987-2025 GAMS Development. All rights reserved
--- Starting compilation
--- model.gms(288) 2 Mb
--- $echo File /local/scratch/a/sgusev/repos/k_means/data/gams_gurobi_gdp.binary_multiplication/no_mode/2026-02-19_04-30-34/original/gurobi.opt
--- model.gms(501) 2 Mb
--- Starting execution: elapsed 0:00:00.007
--- model.gms(297) 3 Mb
--- Generating MINLP model GAMS_MODEL
--- model.gms(301) 5 Mb
---   67 rows  80 columns  405 non-zeroes
---   1,104 nl-code  336 nl-non-zeroes
---   48 discrete-columns
--- Range statistics (absolute non-zero finite values)
--- RHS       [min, max] : [ 1.000E+00, 1.000E+00] - Zero values observed as well
--- Bound     [min, max] : [ 1.000E+00, 1.600E+02] - Zero values observed as well
--- Matrix    [min, max] : [ 1.000E+00, 2.502E+00] - Zero values observed as well
--- model.gms(301) 3 Mb
--- Executing GUROBI (Solvelink=5): elapsed 0:00:00.010
Reading parameter(s) from "/local/scratch/a/sgusev/repos/k_means/data/gams_gurobi_gdp.binary_multiplication/no_mode/2026-02-19_04-30-34/original/gurobi.opt"
>>  NonConvex 2
>>  Threads 1
>>  MIPGap 1e-06
>>  MIPGapAbs 1e-10
>>  FeasibilityTol 1e-06
>>  OptimalityTol 1e-06
>>  IntFeasTol 1e-05
Finished reading from "/local/scratch/a/sgusev/repos/k_means/data/gams_gurobi_gdp.binary_multiplication/no_mode/2026-02-19_04-30-34/original/gurobi.opt"

... GRB_LICENSE_FILE = /local/scratch/a/sgusev/gurobi.lic

    Gurobi           52.2.0 d8e408be Dec 8, 2025           LEG x86 64bit/Linux    

... GAMS/Gurobi Link license.
... GMO Q Extraction (ThreePass): 0.00s

    Gurobi Optimizer version 13.0.0 build v13.0.0rc1 (linux64 - "Oracle Linux Server 9.7")
    
    CPU model: AMD EPYC 7643 48-Core Processor, instruction set [SSE2|AVX|AVX2]
    Thread count: 48 physical cores, 96 logical processors, using up to 1 threads
    
    Non-default parameters:
    TimeLimit  300
    MIPGap  1e-06
    LogToConsole  0
    NonConvex  2
    Threads  1
    
    Optimize a model with 66 rows, 127 columns and 100 nonzeros (Min)
    Model fingerprint: 0xfd2e9b84
    Model has 16 linear objective coefficients
    Model has 48 general nonlinear constraints (288 nonlinear terms)
    Variable types: 79 continuous, 48 integer (0 binary)
    Coefficient statistics:
      Matrix range     [1e+00, 1e+00]
      Objective range  [1e+00, 1e+00]
      Bounds range     [1e+00, 2e+02]
      RHS range        [1e+00, 1e+00]
      NLCon coe range  [4e-02, 1e+00]
    Presolve model has 48 nlconstr
    Added 528 variables to disaggregate expressions
    Presolve removed 48 rows and 0 columns
    Presolve time: 0.00s
    Presolved: 1218 rows, 704 columns, 2788 nonzeros
    Presolved model has 240 bilinear constraint(s)
    
    Solving non-convex MIQCP to global optimality
    
    Variable types: 656 continuous, 48 integer (48 binary)
    Found heuristic solution: objective 28.8420671
    
    Root relaxation: objective 0.000000e+00, 485 iterations, 0.00 seconds (0.01 work units)
    
        Nodes    |    Current Node    |     Objective Bounds      |     Work
     Expl Unexpl |  Obj  Depth IntInf | Incumbent    BestBd   Gap | It/Node Time
    
         0     0    0.00000    0  240   28.84207    0.00000   100%     -    0s
    H    0     0                      23.7664509    0.00000   100%     -    0s
         0     0    0.00000    0  275   23.76645    0.00000   100%     -    0s
         0     0    0.00000    0  272   23.76645    0.00000   100%     -    0s
         0     0    0.00000    0  270   23.76645    0.00000   100%     -    0s
         0     0    0.00000    0  272   23.76645    0.00000   100%     -    0s
         0     0    0.00000    0  276   23.76645    0.00000   100%     -    0s
         0     0    0.00000    0  271   23.76645    0.00000   100%     -    0s
         0     0    0.00000    0  271   23.76645    0.00000   100%     -    0s
         0     0    0.00000    0  271   23.76645    0.00000   100%     -    0s
    H    0     0                      21.6360440    0.00000   100%     -    0s
    H    0     0                      20.0238717    0.00000   100%     -    0s
         0     2    0.00000    0  271   20.02387    0.00000   100%     -    0s
    H   19    19                      19.8398398    0.00000   100%  40.8    0s
    H   19    19                      19.8390762    0.00000   100%  40.8    0s
    H   97    95                      19.4217290    0.00000   100%  20.3    0s
    H  171   147                      19.3926526    0.00000   100%  17.3    0s
    H  171   147                      19.3692589    0.00000   100%  17.3    0s
    H  171   147                      19.3665179    0.00000   100%  17.3    0s
    H  171   147                      19.3620981    0.00000   100%  17.3    0s
    H  171   147                      19.3544702    0.00000   100%  17.3    0s
    H  171   147                      19.3446473    0.00000   100%  17.3    0s
    H  506   390                      19.3195554    0.00000   100%  18.0    1s
    H  506   390                      19.3195061    0.00000   100%  18.0    1s
    H  506   390                      19.3190150    0.00000   100%  18.0    1s
    H  616   451                      19.2886342    0.00000   100%  27.9    2s
    H  616   428                      19.2656048    0.00000   100%  27.9    2s
    H  616   407                      19.2617504    0.00000   100%  27.9    2s
    H  616   386                      19.2600124    0.00000   100%  27.9    2s
    H  616   367                      19.2559370    0.00000   100%  27.9    2s
    H  617   350                      19.1293771    0.00000   100%  28.3    2s
    H  617   332                      18.9108685    0.00000   100%  28.3    2s
    H  617   316                      18.9086287    0.00000   100%  28.3    2s
    H  623   304                      18.0024892    0.00000   100%  28.6    2s
    H  623   289                      17.9582466    0.00000   100%  28.6    2s
    H  623   275                      17.9570419    0.00000   100%  28.6    2s
    H  623   261                      17.9569343    0.00000   100%  28.6    2s
    H  623   248                      17.9567740    0.00000   100%  28.6    2s
    H  624   237                      17.9538563    0.00000   100%  28.7    2s
    H  625   226                      17.1300031    0.00000   100%  28.7    2s
    H  625   215                      17.1251698    0.00000   100%  28.7    2s
    H  625   204                      17.1239274    0.00000   100%  28.7    2s
    H  625   194                      17.1231224    0.00000   100%  28.7    2s
    H  625   185                      17.1228817    0.00000   100%  28.7    2s
    H  625   176                      17.1223138    0.00000   100%  28.7    2s
    H  626   168                      17.0407105    0.00000   100%  28.8    2s
    H  626   160                      17.0384082    0.00000   100%  28.8    2s
    H  626   152                      17.0380316    0.00000   100%  28.8    2s
    H  627   146                      17.0377209    0.00000   100%  28.8    2s
    H  639   147                      17.0377200    0.00000   100%  29.3    2s
    H  664   151                      17.0377107    0.00000   100%  29.4    2s
    H  691   153                      17.0377107    0.00000   100%  30.8    2s
    H  846   230                      17.0376534    0.00000   100%  34.3    2s
    H 1002   312                      17.0365703    0.00000   100%  34.1    3s
    H 1057   353                      16.8960999    0.00000   100%  33.9    3s
    H 1057   353                      16.8899350    0.00000   100%  33.9    3s
    H 1057   353                      16.8894636    0.00000   100%  33.9    3s
    H 1057   353                      16.8885868    0.00000   100%  33.9    3s
    H 1578   721                      16.8884242    0.00000   100%  33.6    4s
    H 1578   721                      16.8884206    0.00000   100%  33.6    4s
    H 1592   714                      16.6131512    0.00000   100%  33.6    4s
    H 1592   714                      16.6087641    0.00000   100%  33.6    4s
    H 1592   714                      16.6084218    0.00000   100%  33.6    4s
    H 1798   842                      16.5937658    0.00000   100%  34.2    4s
    H 1798   842                      16.5918387    0.00000   100%  34.2    4s
    H 1800   844                      16.5918141    0.01798   100%  34.3    4s
      2512  1270    2.49915   24  250   16.59181    1.28172  92.3%  33.7    5s
    H 2800  1439                      16.5914805    1.36620  91.8%  33.5    5s
    H 2800  1439                      16.5914769    1.36620  91.8%  33.5    5s
    H 2812  1444                      16.5058683    1.36620  91.7%  33.4    5s
    H 3812  2017                      16.5058683    1.63205  90.1%  32.7    6s
      7657  4177     cutoff   38        16.50587    2.62594  84.1%  31.5   10s
    H 8778  4724                      16.4693787    2.98587  81.9%  31.3   11s
    H 8974  4806                      16.4693787    2.99345  81.8%  31.2   11s
     12684  6668   11.45134   30  238   16.46938    3.62235  78.0%  31.2   15s
     17979  9208 infeasible   39        16.46938    4.25079  74.2%  30.9   20s
     22656 11378 infeasible   36        16.46938    4.66979  71.6%  30.5   25s
     27877 13694   14.80650   33  247   16.46938    5.04029  69.4%  30.2   30s
     33363 16136     cutoff   36        16.46938    5.38812  67.3%  29.8   35s
     38825 18469   11.78454   32  251   16.46938    5.68364  65.5%  29.7   40s
     44184 20666   11.83198   34  248   16.46938    5.93012  64.0%  29.5   45s
     49366 22756   11.33976   31  248   16.46938    6.14649  62.7%  29.4   50s
     54693 24892   15.62909   38  245   16.46938    6.33934  61.5%  29.2   55s
     59860 27019   14.32160   37  248   16.46938    6.52227  60.4%  29.1   60s
     65223 29115    7.65430   31  244   16.46938    6.70771  59.3%  29.0   65s
     69923 30897   15.76993   35  250   16.46938    6.83874  58.5%  28.9   70s
     75196 32887   14.56856   34  250   16.46938    6.99916  57.5%  28.8   75s
     80571 34866     cutoff   38        16.46938    7.12926  56.7%  28.7   80s
     85746 36641   12.89519   36  238   16.46938    7.24905  56.0%  28.6   85s
     91041 38570   11.63124   29  251   16.46938    7.36900  55.3%  28.5   90s
     96250 40373   15.06535   35  245   16.46938    7.47858  54.6%  28.4   95s
     101571 42191     cutoff   42        16.46938    7.58571  53.9%  28.3  100s
     106115 43737   11.74447   31  251   16.46938    7.67622  53.4%  28.3  105s
     111256 45466 infeasible   32        16.46938    7.76362  52.9%  28.2  110s
    H113634 46262                      16.3984418    7.79905  52.4%  28.2  112s
    H113635 46263                      16.3984418    7.79905  52.4%  28.2  112s
     115950 47016   11.91016   31  250   16.39844    7.84082  52.2%  28.1  115s
     121111 48720   15.48428   37  246   16.39844    7.93414  51.6%  28.1  120s
     126200 50376   14.11633   34  242   16.39844    8.01079  51.1%  28.0  125s
     131568 52131   13.33990   31  248   16.39844    8.08823  50.7%  27.9  130s
     136997 53883   12.25141   33  251   16.39844    8.16143  50.2%  27.8  135s
     142402 55547   12.04430   37  244   16.39844    8.23855  49.8%  27.8  140s
     147672 57100   13.64174   31  246   16.39844    8.31024  49.3%  27.7  145s
     152248 58562     cutoff   39        16.39844    8.38053  48.9%  27.7  150s
     157441 60117     cutoff   39        16.39844    8.45097  48.5%  27.7  155s
     162575 61602   14.26840   35  250   16.39844    8.51294  48.1%  27.6  160s
     167869 63247   15.42203   43  223   16.39844    8.57739  47.7%  27.6  165s
     173240 64808     cutoff   34        16.39844    8.63066  47.4%  27.5  170s
     178383 66222   11.91429   28  253   16.39844    8.68916  47.0%  27.5  175s
     183579 67673   15.90943   37  244   16.39844    8.73894  46.7%  27.5  180s
     188947 69197     cutoff   37        16.39844    8.79026  46.4%  27.4  185s
     192888 70361   15.10486   38  241   16.39844    8.83621  46.1%  27.4  190s
     198075 71752   12.24774   35  235   16.39844    8.88376  45.8%  27.4  195s
     203314 73284     cutoff   37        16.39844    8.93884  45.5%  27.3  200s
     208498 74733   15.13936   31  250   16.39844    8.98720  45.2%  27.3  205s
     213705 76106   15.03335   33  250   16.39844    9.03674  44.9%  27.3  210s
     218905 77465     cutoff   42        16.39844    9.07865  44.6%  27.3  215s
     224274 78894   15.16756   34  238   16.39844    9.13224  44.3%  27.2  220s
     229495 80377 infeasible   34        16.39844    9.17953  44.0%  27.2  225s
     234591 81643   14.98889   36  244   16.39844    9.21671  43.8%  27.2  230s
     239716 82998   15.63797   36  245   16.39844    9.25406  43.6%  27.1  235s
     244897 84238   15.50882   28  234   16.39844    9.30275  43.3%  27.1  240s
     249405 85403 infeasible   36        16.39844    9.33843  43.1%  27.1  245s
     254667 86622 infeasible   32        16.39844    9.38285  42.8%  27.0  250s
     259902 87905   15.32267   33  247   16.39844    9.42845  42.5%  27.0  255s
     265133 89159    9.92164   24  254   16.39844    9.46792  42.3%  27.0  260s
     270335 90392   12.23409   25  254   16.39844    9.50971  42.0%  27.0  265s
     275035 91426   10.76334   32  235   16.39844    9.54239  41.8%  26.9  270s
     280216 92613   11.49066   34  248   16.39844    9.58452  41.6%  26.9  275s
     285488 93780   15.79162   36  250   16.39844    9.61629  41.4%  26.9  280s
     290471 94941   15.27090   37  229   16.39844    9.64942  41.2%  26.9  285s
     294996 95956     cutoff   37        16.39844    9.68387  40.9%  26.9  290s
     299801 96990   15.73096   32  249   16.39844    9.71595  40.8%  26.8  295s
    
    Cutting planes:
      Gomory: 4
      Implied bound: 3
      MIR: 3
      Flow cover: 69
      RLT: 11
    
    Explored 304896 nodes (8177110 simplex iterations) in 300.00 seconds (231.64 work units)
    Thread count was 1 (of 96 available processors)
    
    Solution count 10: 16.3984 16.4694 16.5059 ... 16.6088
    
    Time limit reached
    Best objective 1.639844179204e+01, best bound 9.746276983913e+00, gap 40.5658%
    
    User-callback calls 304965, time in user-callback 0.01 sec

--- Reading solution for model GAMS_MODEL
***
*** Solver did not provide marginals for model GAMS_MODEL
***
--- Executing after solve: elapsed 0:05:00.108
--- model.gms(304) 3 Mb
--- model.gms(501) 5 Mb
--- Putfile results /local/scratch/a/sgusev/repos/k_means/data/gams_gurobi_gdp.binary_multiplication/no_mode/2026-02-19_04-30-34/original/results.dat
--- Putfile statresults /local/scratch/a/sgusev/repos/k_means/data/gams_gurobi_gdp.binary_multiplication/no_mode/2026-02-19_04-30-34/original/resultsstat.dat
*** Status: Normal completion
--- Job model.gms Stop 02/19/26 04:35:35 elapsed 0:05:00.108
Original problem solved. Time taken: 300.59748578071594 seconds
Original objective value: 16.398441792035072
